benchmarks/bfuzz0/243023091129016267991782722139181635223.smt2
(set-logic QF_FP)
(declare-const x0 (_ FloatingPoint 11 53))
(declare-const x1 (_ FloatingPoint 11 53))
(declare-const x2 (_ FloatingPoint 11 53))
(declare-const x3 (_ FloatingPoint 11 53))
(declare-const x4 (_ FloatingPoint 11 53))
(declare-const x5 (_ FloatingPoint 11 53))
(declare-const x6 (_ FloatingPoint 11 53))
(declare-const x7 (_ FloatingPoint 11 53))
(declare-const x8 (_ FloatingPoint 11 53))
(declare-const x9 (_ FloatingPoint 11 53))
(declare-const x10 (_ FloatingPoint 11 53))
(declare-const x11 (_ FloatingPoint 11 53))
(assert (fp.gt (fp.sub RNE x6 x9) (fp.neg x2)))
(assert (fp.eq (fp.div RNE x11 x4) (fp.add RNE x10 x9)))
(assert (fp.eq (fp.sub RNE x6 x2) (fp.mul RNE x1 x6)))
(assert (fp.leq (fp.add RNE x11 x0) (fp.add RNE x4 x0)))
(assert (fp.geq (fp.sub RNE x2 x0) (fp.neg x3)))
(assert (fp.lt (fp.add RNE x10 x2) (fp.neg x5)))
(assert (fp.geq (fp.div RNE x2 x8) (fp.sub RNE x7 x9)))
(assert (fp.leq (fp.neg x4) (fp.mul RNE x9 x5)))
(assert (fp.leq (fp.sub RNE x3 x9) (fp.neg x0)))
(assert (fp.lt (fp.mul RNE x8 x11) (fp.add RNE x0 x6)))
(assert (fp.eq (fp.sub RNE x4 x5) (fp.sub RNE x2 x6)))
(assert (fp.geq (fp.add RNE x9 x5) (fp.add RNE x4 x6)))
(assert (fp.gt (fp.sub RNE x11 x10) (fp.neg x7)))
(assert (fp.eq (fp.div RNE x6 x8) (fp.neg x2)))
(assert (fp.geq (fp.add RNE x8 x0) (fp.div RNE x4 x8)))
(assert (fp.eq (fp.neg x8) (fp.add RNE x1 x8)))
(assert (fp.gt (fp.neg x7) (fp.mul RNE x6 x5)))
(assert (fp.gt (fp.add RNE x3 x10) (fp.sub RNE x1 x11)))
(check-sat)
