db/data/243023091129016267991782722139181635223.z3.out
-------------------
2500.197043763
